Instance name:    bar-n100-3.txt
Authors:          PDPTW Solver
Date:             2026-01-16
Reference:        LNS with SA/RTR
Solution: 0;6;748.000;60.00 s
Route 1 :  11 32 61 4 38 82 3 20 88 70 54 14 53 15 65 6 56 17 67 64
Route 2 :  26 31 81 76 40 13 50 63 90 41 100 22 12 72 9 59 62 16 66 91
Route 3 :  19 1 69 37 25 51 10 49 75 99 87 60 34 2 35 52 84 85
Route 4 :  36 47 39 97 8 86 89 44 29 48 79 94 28 58 98 78
Route 5 :  5 33 45 83 43 55 95 93 24 74 7 27 77 57
Route 6 :  23 73 30 21 80 46 71 18 42 92 96 68
